0 67.0
1 62.0
2 66.0
3 61.0
4 61.0
5 61.0
6 71.0
7 66.0
8 70.0
9 59.0
10 65.0
11 59.0
12 74.0
13 68.0
14 74.0
15 62.0
16 69.0
17 63.0
18 69.0
19 68.0
20 69.0
21 62.0
22 69.0
23 63.0
24 67.0
25 62.0
26 70.0
27 65.0
28 65.0
29 65.0
30 75.0
31 70.0
32 78.0
33 66.0
34 73.0
35 66.0
36 74.0
37 72.0
38 74.0
39 65.0
40 69.0
41 62.0
42 69.0
43 72.0
44 69.0
45 65.0
46 69.0
47 62.0
48 69.0
49 64.0
50 76.0
51 65.0
52 71.0
53 65.0
54 73.0
55 68.0
56 80.0
57 68.0
58 75.0
59 68.0
60 72.0
61 68.0
62 72.0
63 67.0
64 61.0
65 60.0
66 67.0
67 68.0
68 67.0
69 67.0
70 61.0
71 60.0
72 77.0
73 71.0
74 81.0
75 69.0
76 79.0
77 73.0
78 73.0
79 71.0
80 81.0
81 72.0
82 75.0
83 68.0
84 73.0
85 69.0
86 77.0
87 72.0
88 65.0
89 64.0
90 72.0
91 70.0
92 68.0
93 69.0
94 62.0
95 65.0
96 70.0
97 69.0
98 74.0
99 67.0
100 77.0
101 71.0
102 66.0
103 69.0
104 74.0
105 70.0
106 73.0
107 66.0
108 66.0
109 67.0
110 70.0
111 70.0
112 63.0
113 62.0
114 70.0
115 68.0
116 66.0
117 67.0
118 60.0
119 63.0
120 76.0
121 71.0
122 75.0
123 70.0
124 70.0
125 70.0
126 78.0
127 73.0
128 77.0
129 66.0
130 72.0
131 66.0
132 82.0
133 76.0
134 82.0
135 70.0
136 77.0
137 71.0
138 75.0
139 74.0
140 75.0
141 68.0
142 75.0
143 69.0
144 74.0
145 69.0
146 78.0
147 73.0
148 71.0
149 71.0
150 81.0
151 74.0
152 83.0
153 74.0
154 78.0
155 76.0
156 80.0
157 77.0
158 78.0
159 73.0
160 73.0
161 71.0
162 73.0
163 77.0
164 75.0
165 75.0
166 75.0
167 71.0
168 78.0
169 73.0
170 84.0
171 73.0
172 77.0
173 71.0
174 83.0
175 76.0
176 87.0
177 78.0
178 82.0
179 80.0
180 82.0
181 75.0
182 80.0
183 77.0
184 69.0
185 73.0
186 75.0
187 75.0
188 77.0
189 79.0
190 71.0
191 73.0
192 86.0
193 80.0
194 88.0
195 76.0
196 85.0
197 79.0
198 81.0
199 78.0
200 86.0
201 81.0
202 80.0
203 78.0
204 81.0
205 74.0
206 84.0
207 81.0
208 72.0
209 76.0
210 79.0
211 75.0
212 76.0
213 79.0
214 70.0
215 77.0
216 79.0
217 78.0
218 81.0
219 74.0
220 85.0
221 79.0
222 76.0
223 80.0
224 83.0
225 83.0
226 82.0
227 78.0
228 76.0
229 76.0
230 81.0
231 83.0
232 74.0
233 76.0
234 81.0
235 77.0
236 76.0
237 79.0
238 70.0
239 77.0
240 71.0
241 66.0
242 74.0
243 69.0
244 69.0
245 69.0
246 77.0
247 72.0
248 80.0
249 68.0
250 75.0
251 68.0
252 81.0
253 79.0
254 81.0
255 72.0
256 76.0
257 69.0
258 74.0
259 77.0
260 74.0
261 70.0
262 74.0
263 67.0
264 69.0
265 64.0
266 73.0
267 68.0
268 66.0
269 66.0
270 76.0
271 69.0
272 78.0
273 69.0
274 73.0
275 71.0
276 79.0
277 76.0
278 77.0
279 72.0
280 72.0
281 70.0
282 72.0
283 76.0
284 74.0
285 74.0
286 74.0
287 70.0
288 77.0
289 72.0
290 87.0
291 75.0
292 80.0
293 73.0
294 78.0
295 71.0
296 86.0
297 77.0
298 81.0
299 79.0
300 81.0
301 77.0
302 79.0
303 80.0
304 67.0
305 72.0
306 74.0
307 77.0
308 76.0
309 82.0
310 69.0
311 72.0
312 77.0
313 75.0
314 83.0
315 74.0
316 80.0
317 73.0
318 76.0
319 73.0
320 81.0
321 76.0
322 79.0
323 77.0
324 76.0
325 72.0
326 75.0
327 76.0
328 66.0
329 71.0
330 70.0
331 69.0
332 71.0
333 74.0
334 64.0
335 68.0
336 70.0
337 73.0
338 76.0
339 72.0
340 80.0
341 73.0
342 71.0
343 75.0
344 78.0
345 78.0
346 81.0
347 77.0
348 71.0
349 74.0
350 72.0
351 78.0
352 68.0
353 71.0
354 72.0
355 71.0
356 71.0
357 74.0
358 64.0
359 68.0
360 68.0
361 63.0
362 75.0
363 64.0
364 70.0
365 64.0
366 72.0
367 67.0
368 79.0
369 67.0
370 74.0
371 67.0
372 78.0
373 74.0
374 78.0
375 73.0
376 67.0
377 66.0
378 71.0
379 72.0
380 71.0
381 71.0
382 65.0
383 64.0
384 70.0
385 65.0
386 76.0
387 65.0
388 69.0
389 63.0
390 73.0
391 66.0
392 77.0
393 68.0
394 72.0
395 70.0
396 80.0
397 73.0
398 78.0
399 75.0
400 67.0
401 71.0
402 73.0
403 73.0
404 75.0
405 77.0
406 69.0
407 71.0
408 74.0
409 69.0
410 84.0
411 72.0
412 77.0
413 70.0
414 73.0
415 66.0
416 81.0
417 72.0
418 76.0
419 74.0
420 80.0
421 76.0
422 78.0
423 79.0
424 66.0
425 71.0
426 73.0
427 76.0
428 75.0
429 81.0
430 68.0
431 71.0
432 72.0
433 68.0
434 76.0
435 71.0
436 69.0
437 68.0
438 73.0
439 66.0
440 74.0
441 71.0
442 70.0
443 74.0
444 73.0
445 69.0
446 70.0
447 71.0
448 65.0
449 70.0
450 59.0
451 62.0
452 62.0
453 67.0
454 61.0
455 63.0
456 65.0
457 66.0
458 69.0
459 69.0
460 69.0
461 68.0
462 68.0
463 68.0
464 71.0
465 73.0
466 72.0
467 74.0
468 68.0
469 71.0
470 67.0
471 73.0
472 67.0
473 70.0
474 61.0
475 64.0
476 62.0
477 67.0
478 61.0
479 63.0
480 71.0
481 65.0
482 75.0
483 63.0
484 73.0
485 67.0
486 71.0
487 69.0
488 79.0
489 70.0
490 73.0
491 66.0
492 73.0
493 69.0
494 77.0
495 72.0
496 65.0
497 64.0
498 74.0
499 72.0
500 70.0
501 71.0
502 64.0
503 67.0
504 72.0
505 66.0
506 74.0
507 62.0
508 71.0
509 65.0
510 70.0
511 67.0
512 75.0
513 70.0
514 69.0
515 67.0
516 74.0
517 67.0
518 77.0
519 74.0
520 65.0
521 69.0
522 75.0
523 71.0
524 72.0
525 75.0
526 66.0
527 73.0
528 68.0
529 66.0
530 74.0
531 65.0
532 71.0
533 64.0
534 66.0
535 63.0
536 71.0
537 66.0
538 69.0
539 67.0
540 74.0
541 70.0
542 73.0
543 74.0
544 64.0
545 69.0
546 67.0
547 66.0
548 68.0
549 71.0
550 61.0
551 65.0
552 66.0
553 62.0
554 70.0
555 65.0
556 63.0
557 62.0
558 68.0
559 61.0
560 69.0
561 66.0
562 65.0
563 69.0
564 72.0
565 68.0
566 69.0
567 70.0
568 64.0
569 69.0
570 57.0
571 60.0
572 60.0
573 65.0
574 59.0
575 61.0
576 64.0
577 62.0
578 64.0
579 65.0
580 60.0
581 63.0
582 67.0
583 63.0
584 65.0
585 68.0
586 63.0
587 70.0
588 63.0
589 62.0
590 61.0
591 64.0
592 62.0
593 66.0
594 55.0
595 58.0
596 57.0
597 62.0
598 60.0
599 62.0
600 67.0
601 66.0
602 71.0
603 64.0
604 74.0
605 68.0
606 67.0
607 70.0
608 75.0
609 71.0
610 74.0
611 67.0
612 69.0
613 70.0
614 73.0
615 73.0
616 66.0
617 65.0
618 77.0
619 75.0
620 73.0
621 74.0
622 67.0
623 70.0
624 70.0
625 69.0
626 72.0
627 65.0
628 76.0
629 70.0
630 68.0
631 72.0
632 75.0
633 75.0
634 74.0
635 70.0
636 72.0
637 72.0
638 77.0
639 79.0
640 70.0
641 72.0
642 80.0
643 76.0
644 75.0
645 78.0
646 69.0
647 76.0
648 66.0
649 69.0
650 72.0
651 68.0
652 76.0
653 69.0
654 64.0
655 68.0
656 71.0
657 71.0
658 74.0
659 70.0
660 72.0
661 75.0
662 73.0
663 79.0
664 69.0
665 72.0
666 72.0
667 71.0
668 71.0
669 74.0
670 64.0
671 68.0
672 64.0
673 65.0
674 68.0
675 68.0
676 68.0
677 67.0
678 66.0
679 66.0
680 69.0
681 71.0
682 70.0
683 72.0
684 70.0
685 73.0
686 69.0
687 75.0
688 69.0
689 72.0
690 62.0
691 65.0
692 63.0
693 68.0
694 62.0
695 64.0
696 69.0
697 67.0
698 69.0
699 70.0
700 65.0
701 68.0
702 70.0
703 66.0
704 68.0
705 71.0
706 66.0
707 73.0
708 66.0
709 65.0
710 64.0
711 67.0
712 65.0
713 69.0
714 58.0
715 61.0
716 60.0
717 65.0
718 63.0
719 65.0
720 71.0
721 66.0
722 70.0
723 65.0
724 65.0
725 65.0
726 75.0
727 70.0
728 74.0
729 63.0
730 69.0
731 63.0
732 78.0
733 72.0
734 78.0
735 66.0
736 73.0
737 67.0
738 73.0
739 72.0
740 73.0
741 66.0
742 73.0
743 67.0
744 66.0
745 61.0
746 69.0
747 64.0
748 64.0
749 64.0
750 74.0
751 69.0
752 77.0
753 65.0
754 72.0
755 65.0
756 73.0
757 71.0
758 73.0
759 64.0
760 68.0
761 61.0
762 68.0
763 71.0
764 68.0
765 64.0
766 68.0
767 61.0
768 65.0
769 60.0
770 72.0
771 61.0
772 67.0
773 61.0
774 69.0
775 64.0
776 76.0
777 64.0
778 71.0
779 64.0
780 68.0
781 64.0
782 68.0
783 63.0
784 57.0
785 56.0
786 63.0
787 64.0
788 63.0
789 63.0
790 57.0
791 56.0
792 67.0
793 61.0
794 71.0
795 59.0
796 69.0
797 63.0
798 63.0
799 61.0
800 71.0
801 62.0
802 65.0
803 58.0
804 63.0
805 59.0
806 67.0
807 62.0
808 55.0
809 54.0
810 62.0
811 60.0
812 58.0
813 59.0
814 52.0
815 55.0
816 65.0
817 64.0
818 69.0
819 62.0
820 72.0
821 66.0
822 61.0
823 64.0
824 69.0
825 65.0
826 68.0
827 61.0
828 61.0
829 62.0
830 65.0
831 65.0
832 58.0
833 57.0
834 65.0
835 63.0
836 61.0
837 62.0
838 55.0
839 58.0
840 75.0
841 70.0
842 74.0
843 69.0
844 69.0
845 69.0
846 74.0
847 69.0
848 73.0
849 62.0
850 68.0
851 62.0
852 72.0
853 66.0
854 72.0
855 60.0
856 67.0
857 61.0
858 70.0
859 69.0
860 70.0
861 63.0
862 70.0
863 64.0
864 65.0
865 60.0
866 63.0
867 58.0
868 61.0
869 61.0
870 63.0
871 61.0
872 64.0
873 59.0
874 62.0
875 58.0
876 65.0
877 60.0
878 60.0
879 58.0
880 57.0
881 57.0
882 69.0
883 64.0
884 66.0
885 55.0
886 64.0
887 58.0
888 68.0
889 66.0
890 68.0
891 63.0
892 67.0
893 56.0
894 70.0
895 59.0
896 65.0
897 56.0
898 62.0
899 56.0
900 71.0
901 65.0
902 70.0
903 58.0
904 66.0
905 60.0
906 72.0
907 68.0
908 73.0
909 67.0
910 72.0
911 61.0
912 74.0
913 62.0
914 69.0
915 62.0
916 67.0
917 61.0
918 69.0
919 68.0
920 68.0
921 61.0
922 66.0
923 60.0
924 67.0
925 65.0
926 65.0
927 64.0
928 67.0
929 58.0
930 66.0
931 59.0
932 66.0
933 59.0
934 67.0
935 61.0
936 75.0
937 70.0
938 78.0
939 73.0
940 73.0
941 73.0
942 73.0
943 68.0
944 76.0
945 64.0
946 71.0
947 64.0
948 71.0
949 69.0
950 71.0
951 62.0
952 66.0
953 59.0
954 69.0
955 72.0
956 69.0
957 65.0
958 69.0
959 62.0
960 70.0
961 65.0
962 68.0
963 63.0
964 66.0
965 66.0
966 63.0
967 61.0
968 64.0
969 59.0
970 66.0
971 62.0
972 69.0
973 64.0
974 64.0
975 62.0
976 61.0
977 61.0
978 78.0
979 73.0
980 74.0
981 62.0
982 72.0
983 65.0
984 73.0
985 71.0
986 72.0
987 67.0
988 76.0
989 63.0
990 79.0
991 67.0
992 74.0
993 63.0
994 71.0
995 64.0
996 72.0
997 70.0
998 70.0
999 61.0
1000 66.0
1001 59.0
1002 77.0
1003 73.0
1004 73.0
1005 71.0
1006 77.0
1007 64.0
1008 75.0
1009 66.0
1010 70.0
1011 61.0
1012 72.0
1013 65.0
1014 70.0
1015 73.0
1016 68.0
1017 64.0
1018 66.0
1019 59.0
1020 72.0
1021 70.0
1022 65.0
1023 68.0
1024 72.0
1025 61.0
1026 67.0
1027 63.0
1028 67.0
1029 58.0
1030 72.0
1031 65.0
1032 72.0
1033 67.0
1034 79.0
1035 68.0
1036 74.0
1037 68.0
1038 71.0
1039 66.0
1040 78.0
1041 66.0
1042 73.0
1043 66.0
1044 68.0
1045 64.0
1046 68.0
1047 63.0
1048 57.0
1049 56.0
1050 66.0
1051 67.0
1052 66.0
1053 66.0
1054 60.0
1055 59.0
1056 77.0
1057 72.0
1058 74.0
1059 63.0
1060 72.0
1061 66.0
1062 66.0
1063 64.0
1064 66.0
1065 61.0
1066 73.0
1067 62.0
1068 76.0
1069 65.0
1070 71.0
1071 62.0
1072 68.0
1073 62.0
1074 81.0
1075 76.0
1076 77.0
1077 65.0
1078 75.0
1079 68.0
1080 71.0
1081 69.0
1082 70.0
1083 65.0
1084 78.0
1085 65.0
1086 81.0
1087 69.0
1088 76.0
1089 65.0
1090 73.0
1091 66.0
1092 70.0
1093 66.0
1094 69.0
1095 64.0
1096 58.0
1097 57.0
1098 80.0
1099 69.0
1100 72.0
1101 68.0
1102 80.0
1103 67.0
1104 73.0
1105 68.0
1106 62.0
1107 60.0
1108 69.0
1109 68.0
1110 68.0
1111 69.0
1112 67.0
1113 67.0
1114 58.0
1115 57.0
1116 75.0
1117 66.0
1118 64.0
1119 65.0
1120 75.0
1121 64.0
1122 65.0
1123 65.0
1124 59.0
1125 57.0
1126 69.0
1127 68.0
1128 75.0
1129 69.0
1130 79.0
1131 67.0
1132 77.0
1133 71.0
1134 70.0
1135 68.0
1136 78.0
1137 69.0
1138 72.0
1139 65.0
1140 69.0
1141 65.0
1142 73.0
1143 68.0
1144 61.0
1145 60.0
1146 69.0
1147 67.0
1148 65.0
1149 66.0
1150 59.0
1151 62.0
1152 85.0
1153 79.0
1154 84.0
1155 72.0
1156 80.0
1157 74.0
1158 75.0
1159 71.0
1160 76.0
1161 70.0
1162 79.0
1163 68.0
1164 81.0
1165 69.0
1166 79.0
1167 72.0
1168 77.0
1169 71.0
1170 81.0
1171 79.0
1172 79.0
1173 70.0
1174 75.0
1175 68.0
1176 76.0
1177 72.0
1178 72.0
1179 70.0
1180 84.0
1181 71.0
1182 82.0
1183 73.0
1184 76.0
1185 67.0
1186 78.0
1187 71.0
1188 76.0
1189 72.0
1190 75.0
1191 70.0
1192 64.0
1193 63.0
1194 81.0
1195 70.0
1196 73.0
1197 69.0
1198 85.0
1199 72.0
1200 78.0
1201 73.0
1202 66.0
1203 64.0
1204 73.0
1205 72.0
1206 73.0
1207 71.0
1208 68.0
1209 69.0
1210 61.0
1211 64.0
1212 80.0
1213 73.0
1214 70.0
1215 68.0
1216 76.0
1217 67.0
1218 71.0
1219 72.0
1220 65.0
1221 63.0
1222 70.0
1223 73.0
1224 71.0
1225 70.0
1226 75.0
1227 68.0
1228 78.0
1229 72.0
1230 66.0
1231 69.0
1232 74.0
1233 70.0
1234 73.0
1235 66.0
1236 65.0
1237 66.0
1238 69.0
1239 69.0
1240 62.0
1241 61.0
1242 67.0
1243 65.0
1244 63.0
1245 64.0
1246 57.0
1247 60.0
1248 78.0
1249 77.0
1250 77.0
1251 70.0
1252 75.0
1253 69.0
1254 68.0
1255 66.0
1256 66.0
1257 65.0
1258 72.0
1259 63.0
1260 71.0
1261 64.0
1262 74.0
1263 67.0
1264 75.0
1265 69.0
1266 74.0
1267 77.0
1268 72.0
1269 68.0
1270 70.0
1271 63.0
1272 69.0
1273 67.0
1274 62.0
1275 65.0
1276 77.0
1277 66.0
1278 72.0
1279 68.0
1280 71.0
1281 62.0
1282 76.0
1283 69.0
1284 69.0
1285 70.0
1286 68.0
1287 68.0
1288 59.0
1289 58.0
1290 74.0
1291 65.0
1292 63.0
1293 64.0
1294 78.0
1295 67.0
1296 68.0
1297 68.0
1298 61.0
1299 59.0
1300 71.0
1301 70.0
1302 68.0
1303 66.0
1304 63.0
1305 64.0
1306 56.0
1307 59.0
1308 78.0
1309 71.0
1310 68.0
1311 66.0
1312 74.0
1313 65.0
1314 69.0
1315 70.0
1316 63.0
1317 61.0
1318 68.0
1319 71.0
1320 69.0
1321 64.0
1322 68.0
1323 63.0
1324 63.0
1325 63.0
1326 71.0
1327 66.0
1328 70.0
1329 59.0
1330 65.0
1331 59.0
1332 75.0
1333 69.0
1334 75.0
1335 63.0
1336 70.0
1337 64.0
1338 68.0
1339 67.0
1340 68.0
1341 61.0
1342 68.0
1343 62.0
1344 71.0
1345 66.0
1346 75.0
1347 70.0
1348 68.0
1349 68.0
1350 78.0
1351 71.0
1352 80.0
1353 75.0
1354 77.0
1355 74.0
1356 75.0
1357 70.0
1358 70.0
1359 74.0
1360 72.0
1361 72.0
1362 70.0
1363 65.0
1364 76.0
1365 65.0
1366 69.0
1367 63.0
1368 75.0
1369 68.0
1370 79.0
1371 74.0
1372 74.0
1373 67.0
1374 72.0
1375 61.0
1376 67.0
1377 67.0
1378 69.0
1379 63.0
1380 73.0
1381 67.0
1382 75.0
1383 63.0
1384 72.0
1385 66.0
1386 68.0
1387 65.0
1388 73.0
1389 67.0
1390 68.0
1391 61.0
1392 71.0
1393 59.0
1394 66.0
1395 62.0
1396 63.0
1397 57.0
1398 69.0
1399 68.0
1400 71.0
1401 64.0
1402 75.0
1403 69.0
1404 66.0
1405 70.0
1406 73.0
1407 72.0
1408 66.0
1409 66.0
1410 71.0
1411 64.0
1412 71.0
1413 67.0
1414 66.0
1415 60.0
1416 64.0
1417 59.0
1418 63.0
1419 58.0
1420 58.0
1421 58.0
1422 63.0
1423 58.0
1424 62.0
1425 51.0
1426 57.0
1427 51.0
1428 61.0
1429 55.0
1430 61.0
1431 49.0
1432 56.0
1433 50.0
1434 59.0
1435 58.0
1436 59.0
1437 52.0
1438 59.0
1439 53.0
1440 63.0
1441 58.0
1442 61.0
1443 56.0
1444 59.0
1445 59.0
1446 61.0
1447 59.0
1448 62.0
1449 57.0
1450 60.0
1451 56.0
1452 63.0
1453 58.0
1454 58.0
1455 56.0
1456 55.0
1457 55.0
1458 65.0
1459 60.0
1460 62.0
1461 51.0
1462 60.0
1463 54.0
1464 64.0
1465 62.0
1466 64.0
1467 59.0
1468 63.0
1469 52.0
1470 66.0
1471 55.0
1472 61.0
1473 52.0
1474 58.0
1475 52.0
1476 68.0
1477 62.0
1478 67.0
1479 55.0
1480 63.0
1481 57.0
1482 69.0
1483 65.0
1484 70.0
1485 64.0
1486 69.0
1487 58.0
1488 71.0
1489 59.0
1490 66.0
1491 59.0
1492 64.0
1493 58.0
1494 64.0
1495 63.0
1496 63.0
1497 56.0
1498 61.0
1499 55.0
1500 62.0
1501 60.0
1502 60.0
1503 59.0
1504 62.0
1505 53.0
1506 61.0
1507 54.0
1508 61.0
1509 54.0
1510 62.0
1511 56.0
1512 62.0
1513 57.0
1514 66.0
1515 61.0
1516 59.0
1517 59.0
1518 68.0
1519 61.0
1520 70.0
1521 65.0
1522 66.0
1523 63.0
1524 64.0
1525 59.0
1526 62.0
1527 66.0
1528 64.0
1529 64.0
1530 59.0
1531 54.0
1532 57.0
1533 52.0
1534 55.0
1535 55.0
1536 59.0
1537 57.0
1538 60.0
1539 55.0
1540 63.0
1541 59.0
1542 66.0
1543 61.0
1544 59.0
1545 57.0
1546 56.0
1547 56.0
1548 66.0
1549 59.0
1550 68.0
1551 66.0
1552 60.0
1553 58.0
1554 67.0
1555 60.0
1556 62.0
1557 67.0
1558 62.0
1559 57.0
1560 59.0
1561 56.0
1562 63.0
1563 59.0
1564 65.0
1565 61.0
1566 68.0
1567 65.0
1568 63.0
1569 62.0
1570 57.0
1571 58.0
1572 57.0
1573 61.0
1574 63.0
1575 61.0
1576 58.0
1577 56.0
1578 58.0
1579 62.0
1580 60.0
1581 54.0
1582 54.0
1583 60.0
1584 63.0
1585 58.0
1586 69.0
1587 58.0
1588 62.0
1589 56.0
1590 70.0
1591 63.0
1592 74.0
1593 69.0
1594 67.0
1595 60.0
1596 65.0
1597 54.0
1598 63.0
1599 63.0
1600 65.0
1601 59.0
1602 66.0
1603 61.0
1604 63.0
1605 52.0
1606 61.0
1607 55.0
1608 64.0
1609 62.0
1610 64.0
1611 59.0
1612 70.0
1613 59.0
1614 73.0
1615 62.0
1616 66.0
1617 57.0
1618 63.0
1619 57.0
1620 71.0
1621 64.0
1622 73.0
1623 71.0
1624 62.0
1625 60.0
1626 69.0
1627 62.0
1628 66.0
1629 71.0
1630 66.0
1631 61.0
1632 61.0
1633 54.0
1634 66.0
1635 55.0
1636 70.0
1637 59.0
1638 71.0
1639 64.0
1640 68.0
1641 64.0
1642 53.0
1643 57.0
1644 59.0
1645 59.0
1646 66.0
1647 57.0
1648 63.0
1649 54.0
1650 61.0
1651 61.0
1652 65.0
1653 56.0
1654 50.0
1655 59.0
1656 65.0
1657 59.0
1658 67.0
1659 55.0
1660 64.0
1661 58.0
1662 67.0
1663 64.0
1664 72.0
1665 66.0
1666 66.0
1667 59.0
1668 69.0
1669 57.0
1670 65.0
1671 61.0
1672 62.0
1673 56.0
1674 74.0
1675 68.0
1676 73.0
1677 61.0
1678 69.0
1679 63.0
1680 73.0
1681 69.0
1682 74.0
1683 68.0
1684 75.0
1685 64.0
1686 77.0
1687 65.0
1688 74.0
1689 67.0
1690 72.0
1691 66.0
1692 69.0
1693 66.0
1694 73.0
1695 69.0
1696 66.0
1697 62.0
1698 69.0
1699 66.0
1700 71.0
1701 70.0
1702 64.0
1703 65.0
1704 66.0
1705 59.0
1706 71.0
1707 60.0
1708 69.0
1709 58.0
1710 70.0
1711 63.0
1712 72.0
1713 68.0
1714 56.0
1715 60.0
1716 63.0
1717 59.0
1718 65.0
1719 58.0
1720 67.0
1721 60.0
1722 66.0
1723 62.0
1724 64.0
1725 61.0
1726 55.0
1727 58.0
1728 63.0
1729 62.0
1730 65.0
1731 58.0
1732 69.0
1733 63.0
1734 65.0
1735 69.0
1736 72.0
1737 71.0
1738 64.0
1739 64.0
1740 69.0
1741 62.0
1742 67.0
1743 63.0
1744 62.0
1745 56.0
1746 67.0
1747 66.0
1748 66.0
1749 59.0
1750 64.0
1751 58.0
1752 66.0
1753 64.0
1754 64.0
1755 63.0
1756 68.0
1757 59.0
1758 67.0
1759 60.0
1760 71.0
1761 64.0
1762 72.0
1763 66.0
1764 64.0
1765 68.0
1766 70.0
1767 68.0
1768 61.0
1769 59.0
1770 61.0
1771 65.0
1772 68.0
1773 62.0
1774 61.0
1775 67.0
1776 61.0
1777 61.0
1778 68.0
1779 59.0
1780 64.0
1781 55.0
1782 62.0
1783 62.0
1784 69.0
1785 60.0
1786 53.0
1787 62.0
1788 60.0
1789 56.0
1790 62.0
1791 55.0
1792 69.0
1793 62.0
1794 68.0
1795 64.0
1796 64.0
1797 61.0
1798 55.0
1799 58.0
1800 61.0
1801 56.0
1802 64.0
1803 59.0
1804 59.0
1805 59.0
1806 67.0
1807 62.0
1808 70.0
1809 65.0
1810 71.0
1811 69.0
1812 71.0
1813 66.0
1814 64.0
1815 67.0
1816 64.0
1817 64.0
1818 68.0
1819 63.0
1820 72.0
1821 67.0
1822 65.0
1823 65.0
1824 75.0
1825 68.0
1826 77.0
1827 72.0
1828 78.0
1829 75.0
1830 76.0
1831 71.0
1832 71.0
1833 75.0
1834 73.0
1835 73.0
1836 66.0
1837 61.0
1838 76.0
1839 69.0
1840 67.0
1841 60.0
1842 75.0
1843 70.0
1844 70.0
1845 68.0
1846 63.0
1847 65.0
1848 65.0
1849 63.0
1850 71.0
1851 68.0
1852 64.0
1853 61.0
1854 69.0
1855 67.0
1856 64.0
1857 63.0
1858 58.0
1859 59.0
1860 61.0
1861 64.0
1862 67.0
1863 71.0
1864 62.0
1865 66.0
1866 69.0
1867 72.0
1868 62.0
1869 63.0
1870 63.0
1871 62.0
1872 66.0
1873 61.0
1874 69.0
1875 64.0
1876 64.0
1877 64.0
1878 64.0
1879 59.0
1880 67.0
1881 62.0
1882 62.0
1883 60.0
1884 62.0
1885 57.0
1886 60.0
1887 63.0
1888 60.0
1889 60.0
1890 65.0
1891 60.0
1892 63.0
1893 58.0
1894 61.0
1895 61.0
1896 58.0
1897 56.0
1898 59.0
1899 54.0
1900 61.0
1901 57.0
1902 64.0
1903 59.0
1904 59.0
1905 57.0
1906 56.0
1907 56.0
1908 71.0
1909 66.0
1910 67.0
1911 65.0
1912 66.0
1913 64.0
1914 65.0
1915 60.0
1916 69.0
1917 72.0
1918 67.0
1919 64.0
1920 70.0
1921 68.0
1922 68.0
1923 64.0
1924 75.0
1925 71.0
1926 71.0
1927 69.0
1928 75.0
1929 73.0
1930 68.0
1931 70.0
1932 66.0
1933 69.0
1934 64.0
1935 62.0
1936 68.0
1937 66.0
1938 61.0
1939 64.0
1940 68.0
1941 63.0
1942 63.0
1943 68.0
1944 64.0
1945 59.0
1946 68.0
1947 63.0
1948 61.0
1949 61.0
1950 70.0
1951 63.0
1952 72.0
1953 67.0
1954 68.0
1955 65.0
1956 66.0
1957 61.0
1958 64.0
1959 68.0
1960 66.0
1961 66.0
1962 56.0
1963 51.0
1964 54.0
1965 49.0
1966 52.0
1967 52.0
1968 56.0
1969 54.0
1970 57.0
1971 52.0
1972 60.0
1973 56.0
1974 63.0
1975 58.0
1976 56.0
1977 54.0
1978 53.0
1979 53.0
1980 63.0
1981 56.0
1982 65.0
1983 63.0
1984 57.0
1985 55.0
1986 64.0
1987 57.0
1988 59.0
1989 64.0
1990 59.0
1991 54.0
1992 60.0
1993 57.0
1994 64.0
1995 60.0
1996 66.0
1997 62.0
1998 69.0
1999 66.0
2000 64.0
2001 63.0
2002 58.0
2003 59.0
2004 58.0
2005 62.0
2006 64.0
2007 62.0
2008 59.0
2009 57.0
2010 59.0
2011 63.0
2012 61.0
2013 55.0
2014 55.0
2015 61.0
2016 64.0
2017 59.0
2018 74.0
2019 67.0
2020 72.0
2021 65.0
2022 80.0
2023 75.0
2024 68.0
2025 66.0
2026 64.0
2027 66.0
2028 72.0
2029 67.0
2030 68.0
2031 66.0
2032 66.0
2033 64.0
2034 65.0
2035 60.0
2036 76.0
2037 79.0
2038 72.0
2039 69.0
2040 73.0
2041 66.0
2042 75.0
2043 73.0
2044 59.0
2045 57.0
2046 66.0
2047 59.0
2048 67.0
2049 72.0
2050 67.0
2051 62.0
2052 62.0
2053 68.0
2054 76.0
2055 73.0
2056 74.0
2057 65.0
2058 60.0
2059 68.0
2060 69.0
2061 63.0
2062 71.0
2063 57.0
2064 58.0
2065 56.0
2066 64.0
2067 61.0
2068 65.0
2069 62.0
2070 70.0
2071 68.0
2072 63.0
2073 62.0
2074 58.0
2075 59.0
2076 72.0
2077 70.0
2078 70.0
2079 66.0
2080 71.0
2081 67.0
2082 67.0
2083 65.0
2084 77.0
2085 75.0
2086 72.0
2087 74.0
2088 71.0
2089 68.0
2090 75.0
2091 71.0
2092 63.0
2093 59.0
2094 66.0
2095 63.0
2096 68.0
2097 67.0
2098 65.0
2099 66.0
2100 63.0
2101 69.0
2102 71.0
2103 68.0
2104 70.0
2105 61.0
2106 56.0
2107 63.0
2108 65.0
2109 64.0
2110 66.0
2111 58.0
2112 56.0
2113 59.0
2114 62.0
2115 66.0
2116 63.0
2117 67.0
2118 70.0
2119 73.0
2120 61.0
2121 62.0
2122 60.0
2123 59.0
2124 65.0
2125 68.0
2126 63.0
2127 61.0
2128 64.0
2129 62.0
2130 57.0
2131 60.0
2132 70.0
2133 65.0
2134 69.0
2135 74.0
2136 66.0
2137 70.0
2138 72.0
2139 70.0
2140 58.0
2141 56.0
2142 58.0
2143 62.0
2144 65.0
2145 59.0
2146 62.0
2147 68.0
2148 58.0
2149 66.0
2150 66.0
2151 60.0
2152 67.0
2153 53.0
2154 53.0
2155 60.0
2156 67.0
2157 66.0
2158 66.0
2159 58.0
2160 62.0
2161 57.0
2162 69.0
2163 64.0
2164 66.0
2165 61.0
2166 73.0
2167 68.0
2168 72.0
2169 72.0
2170 65.0
2171 65.0
2172 71.0
2173 66.0
2174 77.0
2175 70.0
2176 74.0
2177 67.0
2178 78.0
2179 73.0
2180 81.0
2181 79.0
2182 74.0
2183 76.0
2184 70.0
2185 65.0
2186 80.0
2187 73.0
2188 69.0
2189 62.0
2190 77.0
2191 72.0
2192 76.0
2193 74.0
2194 69.0
2195 71.0
2196 66.0
2197 70.0
2198 67.0
2199 68.0
2200 67.0
2201 64.0
2202 62.0
2203 66.0
2204 65.0
2205 68.0
2206 65.0
2207 64.0
2208 70.0
2209 65.0
2210 77.0
2211 72.0
2212 69.0
2213 64.0
2214 76.0
2215 71.0
2216 66.0
2217 66.0
2218 64.0
2219 64.0
2220 74.0
2221 69.0
2222 71.0
2223 69.0
2224 63.0
2225 61.0
2226 63.0
2227 58.0
2228 70.0
2229 73.0
2230 68.0
2231 65.0
2232 78.0
2233 73.0
2234 74.0
2235 72.0
2236 68.0
2237 66.0
2238 67.0
2239 62.0
2240 75.0
2241 78.0
2242 73.0
2243 70.0
2244 74.0
2245 73.0
2246 84.0
2247 76.0
2248 84.0
2249 77.0
2250 70.0
2251 69.0
2252 77.0
2253 66.0
2254 77.0
2255 67.0
2256 72.0
2257 67.0
2258 78.0
2259 71.0
2260 79.0
2261 72.0
2262 83.0
2263 78.0
2264 76.0
2265 74.0
2266 72.0
2267 74.0
2268 67.0
2269 62.0
2270 64.0
2271 62.0
2272 65.0
2273 63.0
2274 65.0
2275 60.0
2276 71.0
2277 74.0
2278 67.0
2279 64.0
2280 70.0
2281 63.0
2282 72.0
2283 70.0
2284 61.0
2285 59.0
2286 68.0
2287 61.0
2288 65.0
2289 70.0
2290 65.0
2291 60.0
2292 68.0
2293 73.0
2294 77.0
2295 78.0
2296 75.0
2297 71.0
2298 66.0
2299 73.0
2300 70.0
2301 68.0
2302 72.0
2303 63.0
2304 71.0
2305 66.0
2306 81.0
2307 74.0
2308 79.0
2309 72.0
2310 87.0
2311 82.0
2312 75.0
2313 73.0
2314 71.0
2315 73.0
2316 76.0
2317 71.0
2318 72.0
2319 70.0
2320 70.0
2321 68.0
2322 69.0
2323 64.0
2324 80.0
2325 83.0
2326 76.0
2327 73.0
2328 75.0
2329 68.0
2330 77.0
2331 75.0
2332 61.0
2333 59.0
2334 68.0
2335 61.0
2336 69.0
2337 74.0
2338 69.0
2339 64.0
2340 68.0
2341 74.0
2342 82.0
2343 79.0
2344 80.0
2345 71.0
2346 66.0
2347 74.0
2348 75.0
2349 69.0
2350 77.0
2351 63.0
2352 60.0
2353 64.0
2354 69.0
2355 70.0
2356 68.0
2357 65.0
2358 74.0
2359 73.0
2360 78.0
2361 70.0
2362 82.0
2363 75.0
2364 75.0
2365 80.0
2366 70.0
2367 71.0
2368 71.0
2369 67.0
2370 70.0
2371 76.0
2372 75.0
2373 72.0
2374 72.0
2375 63.0
2376 58.0
2377 62.0
2378 67.0
2379 70.0
2380 66.0
2381 65.0
2382 67.0
2383 66.0
2384 71.0
2385 60.0
2386 75.0
2387 65.0
2388 70.0
2389 77.0
2390 65.0
2391 63.0
2392 68.0
2393 59.0
2394 65.0
2395 73.0
2396 70.0
2397 64.0
2398 69.0
2399 55.0
2400 61.0
2401 65.0
2402 61.0
2403 69.0
2404 63.0
2405 67.0
2406 70.0
2407 72.0
2408 68.0
2409 73.0
2410 72.0
2411 75.0
2412 65.0
2413 71.0
2414 63.0
2415 68.0
2416 71.0
2417 70.0
2418 62.0
2419 66.0
2420 64.0
2421 65.0
2422 68.0
2423 65.0
2424 75.0
2425 79.0
2426 70.0
2427 78.0
2428 69.0
2429 73.0
2430 79.0
2431 78.0
2432 69.0
2433 70.0
2434 73.0
2435 75.0
2436 79.0
2437 77.0
2438 74.0
2439 70.0
2440 82.0
2441 80.0
2442 76.0
2443 75.0
2444 81.0
2445 73.0
2446 85.0
2447 78.0
2448 76.0
2449 78.0
2450 78.0
2451 83.0
2452 77.0
2453 80.0
2454 71.0
2455 70.0
2456 70.0
2457 71.0
2458 72.0
2459 74.0
2460 69.0
2461 73.0
2462 66.0
2463 69.0
2464 71.0
2465 70.0
2466 70.0
2467 75.0
2468 73.0
2469 74.0
2470 76.0
2471 72.0
2472 67.0
2473 73.0
2474 74.0
2475 79.0
2476 72.0
2477 71.0
2478 72.0
2479 70.0
2480 71.0
2481 67.0
2482 77.0
2483 75.0
2484 70.0
2485 74.0
2486 62.0
2487 65.0
2488 67.0
2489 66.0
2490 70.0
2491 76.0
2492 78.0
2493 75.0
2494 77.0
2495 68.0
2496 62.0
2497 66.0
2498 71.0
2499 72.0
2500 70.0
2501 67.0
2502 70.0
2503 69.0
2504 74.0
2505 66.0
2506 78.0
2507 71.0
2508 72.0
2509 77.0
2510 67.0
2511 68.0
2512 68.0
2513 64.0
2514 71.0
2515 77.0
2516 76.0
2517 73.0
2518 73.0
2519 64.0
